(set-info :source |printed by MathSAT|)
(declare-fun |!{$(in_main#0)<N>}| () Int)
(declare-fun |!{$(in_main#0)<N>}.next| () Int)
(declare-fun |!{$(in_main#0)<i>}| () Int)
(declare-fun |!{$(in_main#0)<i>}.next| () Int)
(declare-fun |!{$(in_main#0)<j>}| () Int)
(declare-fun |!{$(in_main#0)<j>}.next| () Int)
(declare-fun |!{$(in_main#0)<r>}| () Int)
(declare-fun |!{$(in_main#0)<r>}.next| () Int)
(declare-fun |!{$(in_main#0)<x>}| () Int)
(declare-fun |!{$(in_main#0)<x>}.next| () Int)
(declare-fun |!{$(in_main#0)<y>}| () Int)
(declare-fun |!{$(in_main#0)<y>}.next| () Int)
(declare-fun |!{$(in_main#0)<a.1>}| () (Array Int Int))
(declare-fun |!{$(in_main#0)<a.1>}.next| () (Array Int Int))
(declare-fun |!{$(in_main#0)<$(in___VERIFIER_nondet_int#0)<h#<__VERIFIER_nondet_int.return>>>}| () Int)
(declare-fun |!{$(in_main#0)<$(in___VERIFIER_nondet_int#1)<h#<__VERIFIER_nondet_int.return>>>}| () Int)
(declare-fun !pc () Int)
(declare-fun !pc.next () Int)
(declare-fun |%{$(in_main#0)<j>}#1| () Int)
(declare-fun |%{$(in_main#0)<x>}#1| () Int)
(declare-fun |%{$(in_main#0)<y>}#1| () Int)
(declare-fun |%{$(in_main#0)<a.1>}#1| () (Array Int Int))
(declare-fun |%{$(in_main#0)<r>}#2| () Int)
(define-fun .def_38 () Int (! !pc :next !pc.next))
(define-fun .def_41 () Bool (! (= .def_38 2) :init true))
(define-fun .def_253 () Bool (= .def_38 32))
(define-fun .def_236 () Bool (= !pc.next 53))
(define-fun .def_256 () Bool (and .def_236 .def_253))
(define-fun .def_245 () Bool (= |!{$(in_main#0)<i>}.next| 1))
(define-fun .def_8 () Int (! |!{$(in_main#0)<N>}| :next |!{$(in_main#0)<N>}.next|))
(define-fun .def_75 () Bool (= .def_8 |!{$(in_main#0)<N>}.next|))
(define-fun .def_246 () Bool (and .def_75 .def_245))
(define-fun .def_12 () Int (! |!{$(in_main#0)<j>}| :next |!{$(in_main#0)<j>}.next|))
(define-fun .def_78 () Bool (= .def_12 |!{$(in_main#0)<j>}.next|))
(define-fun .def_247 () Bool (and .def_78 .def_246))
(define-fun .def_14 () Int (! |!{$(in_main#0)<r>}| :next |!{$(in_main#0)<r>}.next|))
(define-fun .def_80 () Bool (= .def_14 |!{$(in_main#0)<r>}.next|))
(define-fun .def_248 () Bool (and .def_80 .def_247))
(define-fun .def_16 () Int (! |!{$(in_main#0)<x>}| :next |!{$(in_main#0)<x>}.next|))
(define-fun .def_82 () Bool (= .def_16 |!{$(in_main#0)<x>}.next|))
(define-fun .def_249 () Bool (and .def_82 .def_248))
(define-fun .def_18 () Int (! |!{$(in_main#0)<y>}| :next |!{$(in_main#0)<y>}.next|))
(define-fun .def_92 () Bool (= .def_18 |!{$(in_main#0)<y>}.next|))
(define-fun .def_250 () Bool (and .def_92 .def_249))
(define-fun .def_20 () (Array Int Int) (! |!{$(in_main#0)<a.1>}| :next |!{$(in_main#0)<a.1>}.next|))
(define-fun .def_89 () Bool (= .def_20 |!{$(in_main#0)<a.1>}.next|))
(define-fun .def_251 () Bool (and .def_89 .def_250))
(define-fun .def_10 () Int (! |!{$(in_main#0)<i>}| :next |!{$(in_main#0)<i>}.next|))
(define-fun .def_155 () Bool (<= .def_8 .def_10))
(define-fun .def_252 () Bool (and .def_155 .def_251))
(define-fun .def_257 () Bool (and .def_252 .def_256))
(define-fun .def_69 () Bool (= !pc.next 32))
(define-fun .def_254 () Bool (and .def_69 .def_253))
(define-fun .def_241 () (Array Int Int) (store .def_20 .def_10 |!{$(in_main#0)<$(in___VERIFIER_nondet_int#1)<h#<__VERIFIER_nondet_int.return>>>}|))
(define-fun .def_242 () Bool (= |!{$(in_main#0)<a.1>}.next| .def_241))
(define-fun .def_223 () Int (* (- 1) |!{$(in_main#0)<i>}.next|))
(define-fun .def_224 () Int (+ .def_10 .def_223))
(define-fun .def_225 () Bool (= .def_224 (- 1)))
(define-fun .def_226 () Bool (and .def_75 .def_225))
(define-fun .def_227 () Bool (and .def_78 .def_226))
(define-fun .def_228 () Bool (and .def_80 .def_227))
(define-fun .def_229 () Bool (and .def_82 .def_228))
(define-fun .def_230 () Bool (and .def_92 .def_229))
(define-fun .def_243 () Bool (and .def_230 .def_242))
(define-fun .def_156 () Bool (not .def_155))
(define-fun .def_244 () Bool (and .def_156 .def_243))
(define-fun .def_255 () Bool (and .def_244 .def_254))
(define-fun .def_258 () Bool (or .def_255 .def_257))
(define-fun .def_233 () Bool (= .def_38 62))
(define-fun .def_237 () Bool (and .def_233 .def_236))
(define-fun .def_231 () Bool (and .def_89 .def_230))
(define-fun .def_194 () Bool (<= 0 .def_12))
(define-fun .def_157 () Bool (= .def_14 0))
(define-fun .def_158 () Bool (not .def_157))
(define-fun .def_195 () Bool (and .def_158 .def_194))
(define-fun .def_211 () Bool (not .def_195))
(define-fun .def_232 () Bool (and .def_211 .def_231))
(define-fun .def_238 () Bool (and .def_232 .def_237))
(define-fun .def_184 () Bool (= !pc.next 62))
(define-fun .def_234 () Bool (and .def_184 .def_233))
(define-fun .def_216 () Bool (= |!{$(in_main#0)<r>}.next| |%{$(in_main#0)<r>}#2|))
(define-fun .def_164 () Int (* (- 1) |!{$(in_main#0)<j>}.next|))
(define-fun .def_213 () Int (+ .def_12 .def_164))
(define-fun .def_214 () Bool (= .def_213 1))
(define-fun .def_76 () Bool (= .def_10 |!{$(in_main#0)<i>}.next|))
(define-fun .def_77 () Bool (and .def_75 .def_76))
(define-fun .def_215 () Bool (and .def_77 .def_214))
(define-fun .def_217 () Bool (and .def_215 .def_216))
(define-fun .def_218 () Bool (and .def_82 .def_217))
(define-fun .def_219 () Bool (and .def_92 .def_218))
(define-fun .def_220 () Bool (and .def_89 .def_219))
(define-fun .def_205 () Bool (= |%{$(in_main#0)<r>}#2| 1))
(define-fun .def_197 () Int (select .def_20 .def_12))
(define-fun .def_196 () Int (select .def_20 .def_10))
(define-fun .def_198 () Bool (= .def_196 .def_197))
(define-fun .def_207 () Bool (and .def_198 .def_205))
(define-fun .def_204 () Bool (= .def_14 |%{$(in_main#0)<r>}#2|))
(define-fun .def_199 () Bool (not .def_198))
(define-fun .def_206 () Bool (and .def_199 .def_204))
(define-fun .def_208 () Bool (or .def_206 .def_207))
(define-fun .def_221 () Bool (and .def_208 .def_220))
(define-fun .def_222 () Bool (and .def_195 .def_221))
(define-fun .def_235 () Bool (and .def_222 .def_234))
(define-fun .def_239 () Bool (or .def_235 .def_238))
(define-fun .def_182 () Bool (= .def_38 53))
(define-fun .def_102 () Bool (= !pc.next 0))
(define-fun .def_190 () Bool (and .def_102 .def_182))
(define-fun .def_79 () Bool (and .def_77 .def_78))
(define-fun .def_81 () Bool (and .def_79 .def_80))
(define-fun .def_83 () Bool (and .def_81 .def_82))
(define-fun .def_93 () Bool (and .def_83 .def_92))
(define-fun .def_94 () Bool (and .def_89 .def_93))
(define-fun .def_179 () Bool (and .def_94 .def_157))
(define-fun .def_159 () Bool (and .def_156 .def_158))
(define-fun .def_161 () Bool (not .def_159))
(define-fun .def_180 () Bool (and .def_161 .def_179))
(define-fun .def_191 () Bool (and .def_180 .def_190))
(define-fun .def_148 () Bool (= !pc.next 97))
(define-fun .def_187 () Bool (and .def_148 .def_182))
(define-fun .def_173 () Bool (= |!{$(in_main#0)<x>}.next| 0))
(define-fun .def_174 () Bool (and .def_81 .def_173))
(define-fun .def_175 () Bool (and .def_92 .def_174))
(define-fun .def_176 () Bool (and .def_89 .def_175))
(define-fun .def_177 () Bool (and .def_158 .def_176))
(define-fun .def_178 () Bool (and .def_161 .def_177))
(define-fun .def_188 () Bool (and .def_178 .def_187))
(define-fun .def_185 () Bool (and .def_182 .def_184))
(define-fun .def_165 () Int (+ .def_10 .def_164))
(define-fun .def_166 () Bool (= .def_165 1))
(define-fun .def_167 () Bool (and .def_77 .def_166))
(define-fun .def_168 () Bool (and .def_80 .def_167))
(define-fun .def_169 () Bool (and .def_82 .def_168))
(define-fun .def_170 () Bool (and .def_92 .def_169))
(define-fun .def_171 () Bool (and .def_89 .def_170))
(define-fun .def_172 () Bool (and .def_159 .def_171))
(define-fun .def_186 () Bool (and .def_172 .def_185))
(define-fun .def_189 () Bool (or .def_186 .def_188))
(define-fun .def_192 () Bool (or .def_189 .def_191))
(define-fun .def_140 () Bool (= .def_38 106))
(define-fun .def_149 () Bool (and .def_140 .def_148))
(define-fun .def_133 () Int (* (- 1) |!{$(in_main#0)<x>}.next|))
(define-fun .def_134 () Int (+ .def_16 .def_133))
(define-fun .def_135 () Bool (= .def_134 (- 1)))
(define-fun .def_136 () Bool (and .def_81 .def_135))
(define-fun .def_137 () Bool (and .def_92 .def_136))
(define-fun .def_138 () Bool (and .def_89 .def_137))
(define-fun .def_107 () Bool (<= .def_8 .def_18))
(define-fun .def_139 () Bool (and .def_107 .def_138))
(define-fun .def_150 () Bool (and .def_139 .def_149))
(define-fun .def_99 () Bool (= !pc.next 106))
(define-fun .def_145 () Bool (and .def_99 .def_140))
(define-fun .def_85 () Int (* (- 1) |!{$(in_main#0)<y>}.next|))
(define-fun .def_127 () Int (+ .def_18 .def_85))
(define-fun .def_128 () Bool (= .def_127 (- 1)))
(define-fun .def_129 () Bool (and .def_83 .def_128))
(define-fun .def_130 () Bool (and .def_89 .def_129))
(define-fun .def_110 () Int (select .def_20 .def_18))
(define-fun .def_109 () Int (select .def_20 .def_16))
(define-fun .def_111 () Bool (= .def_109 .def_110))
(define-fun .def_112 () Bool (not .def_111))
(define-fun .def_113 () Int (ite .def_112 1 0))
(define-fun .def_114 () Bool (= .def_113 0))
(define-fun .def_115 () Bool (not .def_114))
(define-fun .def_131 () Bool (and .def_115 .def_130))
(define-fun .def_108 () Bool (not .def_107))
(define-fun .def_132 () Bool (and .def_108 .def_131))
(define-fun .def_146 () Bool (and .def_132 .def_145))
(define-fun .def_142 () Bool (= !pc.next 126))
(define-fun .def_143 () Bool (and .def_140 .def_142))
(define-fun .def_119 () Bool (and .def_75 .def_114))
(define-fun .def_120 () Bool (and .def_76 .def_119))
(define-fun .def_121 () Bool (and .def_78 .def_120))
(define-fun .def_122 () Bool (and .def_80 .def_121))
(define-fun .def_123 () Bool (and .def_82 .def_122))
(define-fun .def_124 () Bool (and .def_92 .def_123))
(define-fun .def_125 () Bool (and .def_89 .def_124))
(define-fun .def_126 () Bool (and .def_108 .def_125))
(define-fun .def_144 () Bool (and .def_126 .def_143))
(define-fun .def_147 () Bool (or .def_144 .def_146))
(define-fun .def_151 () Bool (or .def_147 .def_150))
(define-fun .def_97 () Bool (= .def_38 97))
(define-fun .def_103 () Bool (and .def_97 .def_102))
(define-fun .def_72 () Bool (<= .def_8 .def_16))
(define-fun .def_95 () Bool (and .def_72 .def_94))
(define-fun .def_104 () Bool (and .def_95 .def_103))
(define-fun .def_100 () Bool (and .def_97 .def_99))
(define-fun .def_86 () Int (+ .def_16 .def_85))
(define-fun .def_87 () Bool (= .def_86 (- 1)))
(define-fun .def_88 () Bool (and .def_83 .def_87))
(define-fun .def_90 () Bool (and .def_88 .def_89))
(define-fun .def_73 () Bool (not .def_72))
(define-fun .def_91 () Bool (and .def_73 .def_90))
(define-fun .def_101 () Bool (and .def_91 .def_100))
(define-fun .def_105 () Bool (or .def_101 .def_104))
(define-fun .def_70 () Bool (and .def_41 .def_69))
(define-fun .def_66 () Bool (= |!{$(in_main#0)<a.1>}.next| |%{$(in_main#0)<a.1>}#1|))
(define-fun .def_64 () Bool (= |!{$(in_main#0)<y>}.next| |%{$(in_main#0)<y>}#1|))
(define-fun .def_62 () Bool (= |!{$(in_main#0)<x>}.next| |%{$(in_main#0)<x>}#1|))
(define-fun .def_60 () Bool (= |!{$(in_main#0)<r>}.next| 1))
(define-fun .def_58 () Bool (= |!{$(in_main#0)<j>}.next| |%{$(in_main#0)<j>}#1|))
(define-fun .def_56 () Bool (= |!{$(in_main#0)<i>}.next| 0))
(define-fun .def_55 () Bool (= |!{$(in_main#0)<N>}.next| |!{$(in_main#0)<$(in___VERIFIER_nondet_int#0)<h#<__VERIFIER_nondet_int.return>>>}|))
(define-fun .def_57 () Bool (and .def_55 .def_56))
(define-fun .def_59 () Bool (and .def_57 .def_58))
(define-fun .def_61 () Bool (and .def_59 .def_60))
(define-fun .def_63 () Bool (and .def_61 .def_62))
(define-fun .def_65 () Bool (and .def_63 .def_64))
(define-fun .def_67 () Bool (and .def_65 .def_66))
(define-fun .def_71 () Bool (and .def_67 .def_70))
(define-fun .def_106 () Bool (or .def_71 .def_105))
(define-fun .def_152 () Bool (or .def_106 .def_151))
(define-fun .def_193 () Bool (or .def_152 .def_192))
(define-fun .def_240 () Bool (or .def_193 .def_239))
(define-fun .def_259 () Bool (! (or .def_240 .def_258) :trans true))
(define-fun .def_153 () Bool (= .def_38 126))
(define-fun .def_260 () Bool (! (not .def_153) :invar-property 0 :invar-property-name ||))
(assert true)
